results/res_prop_muc/res_Cimatti_mathsat_cores/QF_LIA/ckt_PROP8_tf_15.smt.smt2.out
### boolMucExtractionTime 4315704
