results/res_prop_muc/res_Cimatti_mathsat_cores/QF_LIA/ckt_PROP8_tf_15.smt.smt2.res
unsat
( c1047
  c1057
  c1074
  c1076
  c1077
  c114
  c1146
  c1157
  c1185
  c1193
  c1251
  c1261
  c1278
  c1280
  c1281
  c13
  c1351
  c1362
  c1390
  c1398
  c1456
  c1466
  c1483
  c1486
  c150
  c1557
  c1568
  c1596
  c1604
  c166
  c1662
  c1672
  c1689
  c169
  c1733
  c1736
  c1740
  c1776
  c1784
  c1852
  c1869
  c1931
  c1950
  c1959
  c2107
  c2113
  c2129
  c214
  c2144
  c2164
  c2181
  c2199
  c2218
  c2238
  c2254
  c2271
  c2289
  c2308
  c2317
  c2318
  c2320
  c2321
  c2322
  c2323
  c2324
  c2325
  c2326
  c2327
  c2328
  c2329
  c2330
  c2331
  c253
  c279
  c287
  c301
  c303
  c304
  c345
  c366
  c384
  c398
  c40
  c444
  c454
  c471
  c473
  c474
  c516
  c545
  c555
  c572
  c580
  c638
  c648
  c65
  c665
  c667
  c668
  c69
  c711
  c740
  c750
  c773
  c781
  c839
  c849
  c866
  c868
  c869
  c913
  c942
  c952
  c981
  c989 )
